<number of tasks>
58

<cycle time>
56

<task times>
1 10
2 53
3 41
4 36
5 35
6 17
7 34
8 23
9 14
10 52
11 33
12 34
13 12
14 52
15 12
16 33
17 44
18 7
19 15
20 13
21 29
22 37
23 43
24 23
25 24
26 9
27 16
28 12
29 26
30 22
31 51
32 47
33 34
34 23
35 12
36 52
37 12
38 33
39 44
40 7
41 15
42 13
43 29
44 37
45 43
46 23
47 24
48 9
49 16
50 12
51 26
52 12
53 52
54 12
55 33
56 44
57 7
58 15

<precedence relations>
1,9
2,25
3,21
3,22
4,10
5,36
6,23
6,24
7,43
8,44
9,11
11,13
11,14
11,15
12,17
13,17
14,17
15,17
16,18
17,20
18,19
19,23
20,21
20,25
21,26
21,44
22,27
23,31
24,31
25,38
26,29
27,30
28,32
28,33
29,31
30,34
31,36
32,45
33,35
34,36
35,43
36,37
36,38
37,39
37,40
37,41
38,52
39,43
40,43
41,42
42,43
43,45
44,45
45,46
45,48
45,49
46,47
46,50
47,51
48,55
49,58
50,58
51,52
52,53
53,54
54,55
54,56
55,57
56,57
57,58

<setup times forward>
1,2:2
1,3:5
1,4:4
1,5:1
1,6:4
1,7:9
1,8:3
1,9:1
1,10:1
1,16:3
1,18:1
1,19:5
1,22:6
1,23:3
1,24:2
1,27:2
1,30:9
1,32:8
1,33:2
1,34:3
1,35:6
2,1:2
2,3:3
2,4:2
2,5:1
2,6:2
2,7:7
2,8:5
2,9:1
2,10:3
2,12:2
2,13:6
2,14:2
2,15:4
2,16:5
2,17:6
2,18:1
2,19:3
2,20:1
2,21:2
2,22:4
2,23:1
2,25:2
2,26:6
2,27:4
2,28:2
2,29:5
2,30:7
2,31:1
2,32:6
2,33:4
2,34:5
2,35:4
2,36:1
2,37:4
2,39:4
2,40:4
2,41:4
2,42:4
2,43:4
2,44:4
2,45:3
2,46:2
2,47:2
2,48:2
2,49:1
2,50:5
2,51:5
3,1:5
3,2:3
3,4:1
3,5:4
3,6:1
3,7:4
3,8:8
3,9:4
3,10:6
3,11:3
3,12:5
3,13:3
3,14:1
3,15:1
3,16:8
3,17:3
3,18:4
3,20:2
3,21:5
3,22:1
3,23:2
3,24:3
3,25:5
3,28:5
3,32:3
3,33:7
3,35:1
4,1:4
4,2:2
4,3:1
4,5:3
4,7:5
4,8:7
4,9:3
4,10:5
4,11:2
4,12:4
4,13:4
4,15:2
4,16:7
4,17:4
4,18:3
4,19:1
4,20:1
4,21:4
4,22:2
4,23:1
4,24:2
4,25:4
4,26:4
4,27:6
4,28:4
4,29:7
4,30:5
4,31:1
4,32:4
4,33:6
4,34:7
4,35:2
4,36:3
4,37:6
4,38:1
4,39:6
4,40:6
4,41:6
4,42:2
4,43:2
4,44:6
4,45:5
4,49:1
4,50:3
4,51:3
4,52:3
4,53:5
4,54:3
4,55:4
4,56:3
4,57:4
4,58:4
5,1:1
5,2:1
5,3:4
5,4:3
5,6:3
5,7:8
5,8:4
5,10:2
5,11:1
5,12:1
5,13:7
5,14:3
5,15:5
5,16:4
5,17:7
5,19:4
5,20:2
5,21:1
5,22:5
5,23:2
5,24:1
5,25:1
5,26:7
5,27:3
5,28:1
5,29:4
5,30:8
5,31:2
5,32:7
5,33:3
5,34:4
5,35:5
5,44:3
6,1:4
6,2:2
6,3:1
6,5:3
6,7:5
6,8:7
6,9:3
6,10:5
6,11:2
6,12:4
6,13:4
6,15:2
6,16:7
6,17:4
6,18:3
6,19:1
6,20:1
6,21:4
6,22:2
6,23:1
6,24:2
6,25:4
6,26:4
6,27:6
6,28:4
6,29:7
6,30:5
6,32:4
6,33:6
6,34:7
6,35:2
6,44:6
7,1:9
7,2:7
7,3:4
7,4:5
7,5:8
7,6:5
7,8:12
7,9:8
7,10:10
7,11:7
7,12:9
7,13:1
7,14:5
7,15:3
7,16:12
7,17:1
7,18:8
7,19:4
7,20:6
7,21:9
7,22:3
7,23:6
7,24:7
7,25:9
7,26:1
7,27:11
7,28:9
7,29:12
7,31:6
7,32:1
7,33:11
7,34:12
7,35:3
7,36:8
7,37:11
7,38:6
7,39:11
7,40:11
7,41:11
7,42:3
7,43:3
7,44:11
8,1:3
8,2:5
8,3:8
8,4:7
8,5:4
8,6:7
8,7:12
8,9:4
8,10:2
8,11:5
8,12:3
8,13:11
8,14:7
8,15:9
8,17:11
8,18:4
8,19:8
8,20:6
8,21:3
8,22:9
8,23:6
8,24:5
8,25:3
8,26:11
8,27:1
8,28:3
8,30:12
8,31:6
8,32:11
8,33:1
8,35:9
8,36:4
8,37:1
8,38:6
8,39:1
8,40:1
8,41:1
8,42:9
8,43:9
8,44:1
9,2:1
9,3:4
9,4:3
9,6:3
9,7:8
9,8:4
9,10:2
9,11:1
9,12:1
9,16:4
9,19:4
9,22:5
9,23:2
9,24:1
9,27:3
9,28:1
9,30:8
9,32:7
9,33:3
9,34:4
9,35:5
10,1:1
10,2:3
10,3:6
10,5:2
10,6:5
10,7:10
10,8:2
10,9:2
10,11:3
10,12:1
10,13:9
10,14:5
10,15:7
10,16:2
10,17:9
10,18:2
10,19:6
10,20:4
10,21:1
10,22:7
10,23:4
10,24:3
10,25:1
10,26:9
10,27:1
10,28:1
10,29:2
10,30:10
10,31:4
10,32:9
10,33:1
10,34:2
10,35:7
10,36:2
10,37:1
10,38:4
10,39:1
10,40:1
10,41:1
10,42:7
10,43:7
10,44:1
10,46:5
10,47:5
10,48:5
10,49:4
10,50:8
10,51:8
10,52:8
10,53:10
10,54:2
10,55:9
10,56:2
10,57:9
10,58:9
11,3:3
11,4:2
11,5:1
11,6:2
11,7:7
11,8:5
11,10:3
11,12:2
11,13:6
11,14:2
11,15:4
11,16:5
11,18:1
11,19:3
11,22:4
11,23:1
11,27:4
11,28:2
11,30:7
11,32:6
11,33:4
11,34:5
11,35:4
12,2:2
12,3:5
12,4:4
12,5:1
12,6:4
12,7:9
12,8:3
12,9:1
12,10:1
12,11:2
12,13:8
12,14:4
12,15:6
12,16:3
12,17:8
12,18:1
12,19:5
12,22:6
12,23:3
12,24:2
12,27:2
12,30:9
12,32:8
12,33:2
12,34:3
12,35:6
13,2:6
13,3:3
13,4:4
13,5:7
13,6:4
13,7:1
13,8:11
13,10:9
13,12:8
13,14:4
13,15:2
13,16:11
13,18:7
13,19:3
13,22:2
13,23:5
13,24:6
13,27:10
13,28:8
13,30:1
13,33:10
13,34:11
13,35:2
14,2:2
14,3:1
14,5:3
14,7:5
14,8:7
14,10:5
14,12:4
14,13:4
14,15:2
14,16:7
14,17:4
14,18:3
14,19:1
14,22:2
14,23:1
14,24:2
14,27:6
14,28:4
14,30:5
14,32:4
14,33:6
14,34:7
14,35:2
15,2:4
15,3:1
15,4:2
15,5:5
15,6:2
15,7:3
15,8:9
15,10:7
15,12:6
15,13:2
15,14:2
15,16:9
15,17:2
15,18:5
15,19:1
15,23:3
15,24:4
15,27:8
15,28:6
15,30:3
15,32:2
15,33:8
15,34:9
16,1:3
16,2:5
16,3:8
16,4:7
16,5:4
16,6:7
16,7:12
16,9:4
16,10:2
16,11:5
16,12:3
16,13:11
16,14:7
16,15:9
16,17:11
16,18:4
16,20:6
16,21:3
16,22:9
16,24:5
16,25:3
16,26:11
16,27:1
16,28:3
16,30:12
16,32:11
16,33:1
16,35:9
16,44:1
17,2:6
17,3:3
17,4:4
17,5:7
17,6:4
17,7:1
17,8:11
17,10:9
17,16:11
17,18:7
17,19:3
17,20:5
17,22:2
17,23:5
17,24:6
17,27:10
17,28:8
17,30:1
17,33:10
17,34:11
17,35:2
18,1:1
18,2:1
18,3:4
18,4:3
18,6:3
18,7:8
18,8:4
18,10:2
18,11:1
18,12:1
18,13:7
18,14:3
18,15:5
18,17:7
18,19:4
18,20:2
18,21:1
18,22:5
18,24:1
18,25:1
18,26:7
18,27:3
18,28:1
18,29:4
18,30:8
18,32:7
18,33:3
18,34:4
18,35:5
18,44:3
19,1:5
19,2:3
19,4:1
19,5:4
19,6:1
19,7:4
19,8:8
19,9:4
19,10:6
19,11:3
19,12:5
19,13:3
19,14:1
19,15:1
19,17:3
19,20:2
19,21:5
19,22:1
19,23:2
19,24:3
19,25:5
19,26:3
19,27:7
19,28:5
19,29:8
19,30:4
19,32:3
19,33:7
19,34:8
19,35:1
19,44:7
20,2:1
20,3:2
20,4:1
20,5:2
20,6:1
20,7:6
20,8:6
20,10:4
20,16:6
20,18:2
20,19:2
20,21:3
20,22:3
20,24:1
20,25:3
20,27:5
20,28:3
20,30:6
20,32:5
20,33:5
20,34:6
20,35:3
21,2:2
21,4:4
21,5:1
21,6:4
21,7:9
21,8:3
21,10:1
21,16:3
21,18:1
21,19:5
21,22:6
21,23:3
21,24:2
21,26:8
21,27:2
21,30:9
21,32:8
21,33:2
21,34:3
21,35:6
21,44:2
22,1:6
22,2:4
22,4:2
22,5:5
22,6:2
22,7:3
22,8:9
22,9:5
22,10:7
22,11:4
22,12:6
22,13:2
22,14:2
22,16:9
22,17:2
22,18:5
22,19:1
22,20:3
22,21:6
22,23:3
22,24:4
22,25:6
22,26:2
22,27:8
22,28:6
22,29:9
22,31:3
22,32:2
22,33:8
22,44:8
23,1:3
23,2:1
23,3:2
23,4:1
23,5:2
23,7:6
23,8:6
23,9:2
23,10:4
23,11:1
23,12:3
23,13:5
23,14:1
23,15:3
23,17:5
23,21:3
23,22:3
23,24:1
23,25:3
23,26:5
23,27:5
23,28:3
23,29:6
23,30:6
23,32:5
23,33:5
23,34:6
23,35:3
23,44:5
24,1:2
24,3:3
24,4:2
24,5:1
24,7:7
24,8:5
24,9:1
24,10:3
24,12:2
24,13:6
24,14:2
24,15:4
24,16:5
24,17:6
24,18:1
24,19:3
24,20:1
24,21:2
24,22:4
24,23:1
24,25:2
24,26:6
24,27:4
24,28:2
24,29:5
24,30:7
24,31:1
24,32:6
24,33:4
24,34:5
24,35:4
24,44:4
25,3:5
25,4:4
25,5:1
25,6:4
25,7:9
25,8:3
25,10:1
25,16:3
25,18:1
25,19:5
25,22:6
25,23:3
25,24:2
25,26:8
25,27:2
25,29:3
25,30:9
25,31:3
25,32:8
25,33:2
25,34:3
25,35:6
25,36:1
25,37:2
25,38:3
25,39:2
25,40:2
25,41:2
25,42:6
25,43:6
25,44:2
25,45:1
25,46:4
25,47:4
25,48:4
25,49:3
25,50:7
25,51:7
26,2:6
26,4:4
26,5:7
26,6:4
26,7:1
26,8:11
26,10:9
26,16:11
26,18:7
26,19:3
26,22:2
26,23:5
26,24:6
26,25:8
26,27:10
26,28:8
26,29:11
26,30:1
26,33:10
26,34:11
26,35:2
26,44:10
27,1:2
27,2:4
27,4:6
27,5:3
27,6:6
27,7:11
27,8:1
27,9:3
27,10:1
27,11:4
27,12:2
27,13:10
27,14:6
27,15:8
27,16:1
27,17:10
27,18:3
27,19:7
27,20:5
27,21:2
27,23:5
27,24:4
27,25:2
27,26:10
27,28:2
27,29:1
27,30:11
27,31:5
27,32:10
27,35:8
28,2:2
28,3:5
28,4:4
28,5:1
28,6:4
28,7:9
28,8:3
28,9:1
28,10:1
28,11:2
28,13:8
28,14:4
28,15:6
28,16:3
28,17:8
28,18:1
28,19:5
28,20:3
28,22:6
28,23:3
28,24:2
28,26:8
28,27:2
28,29:3
28,30:9
28,31:3
28,32:8
28,33:2
28,34:3
28,36:1
28,37:2
28,38:3
28,39:2
28,40:2
28,41:2
28,42:6
28,44:2
29,2:5
29,4:7
29,5:4
29,6:7
29,7:12
29,10:2
29,18:4
29,19:8
29,22:9
29,23:6
29,24:5
29,25:3
29,27:1
29,28:3
29,30:12
29,31:6
29,32:11
29,33:1
29,35:9
29,44:1
30,1:9
30,2:7
30,4:5
30,5:8
30,6:5
30,8:12
30,9:8
30,10:10
30,11:7
30,12:9
30,13:1
30,14:5
30,15:3
30,16:12
30,17:1
30,18:8
30,19:4
30,20:6
30,21:9
30,23:6
30,24:7
30,25:9
30,26:1
30,28:9
30,29:12
30,31:6
30,32:1
30,33:11
30,34:12
30,35:3
30,44:11
31,2:1
31,4:1
31,5:2
31,7:6
31,8:6
31,10:4
31,22:3
31,25:3
31,27:5
31,28:3
31,30:6
31,32:5
31,33:5
31,34:6
31,35:3
31,36:2
31,44:5
32,1:8
32,2:6
32,3:3
32,4:4
32,5:7
32,6:4
32,7:1
32,8:11
32,9:7
32,10:9
32,11:6
32,12:8
32,14:4
32,15:2
32,16:11
32,18:7
32,19:3
32,20:5
32,21:8
32,22:2
32,23:5
32,24:6
32,25:8
32,27:10
32,29:11
32,30:1
32,31:5
32,33:10
32,34:11
32,35:2
32,36:7
32,37:10
32,38:5
32,39:10
32,40:10
32,41:10
32,42:2
32,43:2
32,44:10
32,45:9
33,1:2
33,2:4
33,3:7
33,4:6
33,5:3
33,6:6
33,7:11
33,8:1
33,9:3
33,10:1
33,11:4
33,12:2
33,13:10
33,14:6
33,15:8
33,16:1
33,17:10
33,18:3
33,19:7
33,20:5
33,21:2
33,22:8
33,23:5
33,24:4
33,25:2
33,26:10
33,29:1
33,30:11
33,31:5
33,32:10
33,34:1
33,35:8
33,36:3
33,38:5
33,42:8
34,1:3
34,2:5
34,4:7
34,5:4
34,6:7
34,7:12
34,9:4
34,10:2
34,11:5
34,12:3
34,13:11
34,14:7
34,15:9
34,17:11
34,18:4
34,19:8
34,20:6
34,21:3
34,23:6
34,24:5
34,25:3
34,26:11
34,28:3
34,31:6
34,32:11
34,33:1
34,35:9
34,36:4
34,44:1
35,1:6
35,2:4
35,3:1
35,4:2
35,5:5
35,6:2
35,7:3
35,8:9
35,9:5
35,10:7
35,11:4
35,12:6
35,13:2
35,14:2
35,16:9
35,17:2
35,18:5
35,19:1
35,20:3
35,21:6
35,23:3
35,24:4
35,25:6
35,26:2
35,27:8
35,29:9
35,30:3
35,31:3
35,32:2
35,34:9
35,36:5
35,37:8
35,38:3
35,39:8
35,40:8
35,41:8
35,44:8
36,2:1
36,4:3
36,7:8
36,8:4
36,10:2
36,25:1
36,28:1
36,32:7
36,33:3
36,35:5
36,37:3
36,38:2
36,44:3
37,2:4
37,4:6
37,7:11
37,8:1
37,10:1
37,25:2
37,28:2
37,32:10
37,35:8
37,38:5
38,4:1
38,7:6
38,8:6
38,10:4
38,28:3
38,32:5
38,33:5
38,35:3
38,37:5
38,39:5
38,40:5
38,41:5
38,42:3
38,43:3
38,44:5
38,45:4
38,46:1
38,47:1
38,48:1
38,50:4
38,51:4
38,52:4
39,2:4
39,4:6
39,7:11
39,8:1
39,10:1
39,25:2
39,28:2
39,32:10
39,35:8
39,38:5
39,42:8
39,43:8
40,2:4
40,4:6
40,7:11
40,8:1
40,10:1
40,25:2
40,28:2
40,32:10
40,35:8
40,38:5
40,42:8
40,43:8
41,2:4
41,4:6
41,7:11
41,8:1
41,10:1
41,25:2
41,28:2
41,32:10
41,35:8
41,38:5
41,42:8
42,2:4
42,4:2
42,7:3
42,8:9
42,10:7
42,25:6
42,28:6
42,32:2
42,33:8
42,38:3
42,39:8
42,40:8
42,44:8
43,2:4
43,4:2
43,8:9
43,10:7
43,25:6
43,32:2
43,38:3
43,44:8
43,45:7
44,2:4
44,4:6
44,5:3
44,6:6
44,7:11
44,10:1
44,16:1
44,18:3
44,19:7
44,22:8
44,23:5
44,24:4
44,25:2
44,26:10
44,28:2
44,29:1
44,30:11
44,31:5
44,32:10
44,34:1
44,35:8
44,36:3
44,38:5
44,42:8
44,43:8
44,45:1
45,2:3
45,4:5
45,25:1
45,38:4
45,46:5
45,48:5
45,49:4
46,2:2
46,10:5
46,25:4
46,38:1
46,49:1
46,50:3
47,2:2
47,10:5
47,25:4
47,38:1
47,49:1
47,50:3
47,51:3
48,2:2
48,10:5
48,25:4
48,38:1
48,49:1
48,50:3
48,51:3
48,52:3
48,53:5
48,54:3
48,55:4
48,56:3
49,2:1
49,4:1
49,10:4
49,25:3
49,46:1
49,47:1
49,48:1
49,50:4
49,51:4
49,52:4
49,53:6
49,54:2
49,55:5
49,56:2
49,57:5
49,58:5
50,2:5
50,4:3
50,10:8
50,25:7
50,38:4
50,47:3
50,48:3
50,49:4
50,53:2
50,54:6
50,55:1
50,56:6
50,57:1
50,58:1
51,2:5
51,4:3
51,10:8
51,25:7
51,38:4
51,48:3
51,49:4
52,4:3
52,10:8
52,48:3
52,49:4
52,53:2
53,4:5
53,10:10
53,48:5
53,49:6
53,50:2
53,54:8
54,4:3
54,10:2
54,48:3
54,49:2
54,50:6
54,55:7
55,4:4
55,10:9
55,49:5
55,50:1
55,56:7
56,4:3
56,10:2
56,48:3
56,49:2
56,50:6
56,55:7
56,57:7
57,4:4
57,10:9
57,49:5
57,50:1
58,4:4
58,10:9

<setup times backward>
1,2:2
1,3:5
1,4:4
1,5:1
1,6:4
1,7:9
1,18:1
1,19:5
1,22:6
1,23:3
1,24:2
1,30:9
1,32:8
1,35:6
2,3:3
2,4:2
2,6:2
2,7:7
2,13:6
2,14:2
2,15:4
2,17:6
2,19:3
2,20:1
2,22:4
2,23:1
2,26:6
2,30:7
2,31:1
2,32:6
2,35:4
2,42:4
2,43:4
2,46:2
2,47:2
2,48:2
2,49:1
2,50:5
2,51:5
3,7:4
3,13:3
3,15:1
3,17:3
3,32:3
3,35:1
4,3:1
4,7:5
4,13:4
4,15:2
4,17:4
4,19:1
4,22:2
4,26:4
4,30:5
4,32:4
4,35:2
4,42:2
4,43:2
4,50:3
4,51:3
4,52:3
4,53:5
4,55:4
4,57:4
4,58:4
5,2:1
5,3:4
5,4:3
5,6:3
5,7:8
5,11:1
5,13:7
5,14:3
5,15:5
5,17:7
5,19:4
5,20:2
5,22:5
5,23:2
5,24:1
5,26:7
5,30:8
5,31:2
5,32:7
5,35:5
6,3:1
6,7:5
6,13:4
6,15:2
6,17:4
6,19:1
6,22:2
6,26:4
6,30:5
6,32:4
6,35:2
8,1:3
8,2:5
8,3:8
8,4:7
8,5:4
8,6:7
8,7:12
8,9:4
8,10:2
8,11:5
8,12:3
8,13:11
8,14:7
8,15:9
8,17:11
8,18:4
8,19:8
8,20:6
8,21:3
8,22:9
8,23:6
8,24:5
8,25:3
8,26:11
8,27:1
8,28:3
8,30:12
8,31:6
8,32:11
8,33:1
8,35:9
8,36:4
8,37:1
8,38:6
8,39:1
8,40:1
8,41:1
8,42:9
8,43:9
9,2:1
9,3:4
9,4:3
9,6:3
9,7:8
9,19:4
9,22:5
9,23:2
9,24:1
9,30:8
9,32:7
9,35:5
10,1:1
10,2:3
10,3:6
10,4:5
10,5:2
10,6:5
10,7:10
10,9:2
10,11:3
10,12:1
10,13:9
10,14:5
10,15:7
10,17:9
10,18:2
10,19:6
10,20:4
10,21:1
10,22:7
10,23:4
10,24:3
10,25:1
10,26:9
10,28:1
10,30:10
10,31:4
10,32:9
10,35:7
10,36:2
10,38:4
10,42:7
10,43:7
10,46:5
10,47:5
10,48:5
10,49:4
10,50:8
10,51:8
10,52:8
10,53:10
10,54:2
10,55:9
10,56:2
10,57:9
10,58:9
11,3:3
11,4:2
11,6:2
11,7:7
11,19:3
11,22:4
11,23:1
11,30:7
11,32:6
11,35:4
12,2:2
12,3:5
12,4:4
12,5:1
12,6:4
12,7:9
12,9:1
12,11:2
12,13:8
12,14:4
12,15:6
12,18:1
12,19:5
12,22:6
12,23:3
12,24:2
12,30:9
12,32:8
12,35:6
13,7:1
13,30:1
14,3:1
14,7:5
14,13:4
14,15:2
14,19:1
14,22:2
14,30:5
14,32:4
14,35:2
15,7:3
15,13:2
15,30:3
15,32:2
16,1:3
16,2:5
16,3:8
16,4:7
16,5:4
16,6:7
16,7:12
16,9:4
16,10:2
16,11:5
16,12:3
16,13:11
16,14:7
16,15:9
16,17:11
16,20:6
16,21:3
16,22:9
16,24:5
16,25:3
16,26:11
16,27:1
16,28:3
16,30:12
16,32:11
16,33:1
16,35:9
16,44:1
17,7:1
17,30:1
18,2:1
18,3:4
18,4:3
18,6:3
18,7:8
18,11:1
18,13:7
18,14:3
18,15:5
18,17:7
18,20:2
18,22:5
18,24:1
18,26:7
18,30:8
18,32:7
18,35:5
19,7:4
19,13:3
19,15:1
19,17:3
19,22:1
19,26:3
19,30:4
19,32:3
19,35:1
20,3:2
20,4:1
20,6:1
20,7:6
20,13:5
20,14:1
20,15:3
20,17:5
20,19:2
20,22:3
20,30:6
20,32:5
20,35:3
21,2:2
21,3:5
21,4:4
21,5:1
21,6:4
21,7:9
21,9:1
21,11:2
21,13:8
21,14:4
21,15:6
21,17:8
21,18:1
21,19:5
21,20:3
21,22:6
21,23:3
21,24:2
21,30:9
21,32:8
21,35:6
22,7:3
22,13:2
22,17:2
22,26:2
22,32:2
23,3:2
23,4:1
23,6:1
23,7:6
23,13:5
23,14:1
23,15:3
23,17:5
23,19:2
23,22:3
23,26:5
23,30:6
23,32:5
23,35:3
24,3:3
24,4:2
24,6:2
24,7:7
24,13:6
24,14:2
24,15:4
24,17:6
24,19:3
24,20:1
24,22:4
24,23:1
24,26:6
24,30:7
24,32:6
24,35:4
25,2:2
25,3:5
25,4:4
25,5:1
25,6:4
25,7:9
25,9:1
25,11:2
25,13:8
25,14:4
25,15:6
25,17:8
25,18:1
25,19:5
25,20:3
25,22:6
25,23:3
25,24:2
25,26:8
25,30:9
25,31:3
25,32:8
25,35:6
25,36:1
25,42:6
25,43:6
25,46:4
25,47:4
25,48:4
25,49:3
25,50:7
25,51:7
26,7:1
26,30:1
27,1:2
27,2:4
27,3:7
27,4:6
27,5:3
27,6:6
27,7:11
27,9:3
27,10:1
27,11:4
27,12:2
27,13:10
27,14:6
27,15:8
27,17:10
27,18:3
27,19:7
27,20:5
27,21:2
27,22:8
27,23:5
27,24:4
27,25:2
27,26:10
27,28:2
27,31:5
27,32:10
27,35:8
28,2:2
28,3:5
28,4:4
28,5:1
28,6:4
28,7:9
28,9:1
28,11:2
28,13:8
28,14:4
28,15:6
28,17:8
28,18:1
28,19:5
28,20:3
28,22:6
28,23:3
28,24:2
28,26:8
28,30:9
28,31:3
28,36:1
28,38:3
28,42:6
29,1:3
29,2:5
29,3:8
29,4:7
29,5:4
29,6:7
29,7:12
29,9:4
29,10:2
29,11:5
29,12:3
29,13:11
29,14:7
29,15:9
29,17:11
29,18:4
29,19:8
29,20:6
29,21:3
29,22:9
29,23:6
29,24:5
29,25:3
29,26:11
29,27:1
29,28:3
29,30:12
29,32:11
29,33:1
29,35:9
29,44:1
31,3:2
31,4:1
31,6:1
31,7:6
31,13:5
31,14:1
31,15:3
31,17:5
31,19:2
31,22:3
31,26:5
31,30:6
31,32:5
31,35:3
32,7:1
32,30:1
33,1:2
33,2:4
33,3:7
33,4:6
33,5:3
33,6:6
33,7:11
33,9:3
33,10:1
33,11:4
33,12:2
33,13:10
33,14:6
33,15:8
33,17:10
33,18:3
33,19:7
33,20:5
33,21:2
33,22:8
33,23:5
33,24:4
33,25:2
33,26:10
33,28:2
33,30:11
33,31:5
33,32:10
33,36:3
33,38:5
33,42:8
34,1:3
34,2:5
34,3:8
34,4:7
34,5:4
34,6:7
34,7:12
34,9:4
34,10:2
34,11:5
34,12:3
34,13:11
34,14:7
34,15:9
34,17:11
34,18:4
34,19:8
34,20:6
34,21:3
34,22:9
34,23:6
34,24:5
34,25:3
34,26:11
34,27:1
34,28:3
34,30:12
34,31:6
34,32:11
34,33:1
34,35:9
34,44:1
35,7:3
35,13:2
35,17:2
35,26:2
35,30:3
35,32:2
36,2:1
36,3:4
36,4:3
36,6:3
36,7:8
36,11:1
36,13:7
36,14:3
36,15:5
36,17:7
36,19:4
36,20:2
36,22:5
36,23:2
36,24:1
36,26:7
36,30:8
36,31:2
36,32:7
36,35:5
37,1:2
37,2:4
37,3:7
37,4:6
37,5:3
37,6:6
37,7:11
37,9:3
37,10:1
37,11:4
37,12:2
37,13:10
37,14:6
37,15:8
37,17:10
37,18:3
37,19:7
37,20:5
37,21:2
37,22:8
37,23:5
37,24:4
37,25:2
37,26:10
37,28:2
37,30:11
37,31:5
37,32:10
37,35:8
37,36:3
37,38:5
38,3:2
38,4:1
38,6:1
38,7:6
38,13:5
38,14:1
38,15:3
38,17:5
38,19:2
38,22:3
38,26:5
38,30:6
38,32:5
38,35:3
38,42:3
38,43:3
38,46:1
38,47:1
38,48:1
38,50:4
38,51:4
39,1:2
39,2:4
39,3:7
39,4:6
39,5:3
39,6:6
39,7:11
39,9:3
39,10:1
39,11:4
39,12:2
39,13:10
39,14:6
39,15:8
39,17:10
39,18:3
39,19:7
39,20:5
39,21:2
39,22:8
39,23:5
39,24:4
39,25:2
39,26:10
39,28:2
39,30:11
39,31:5
39,32:10
39,35:8
39,36:3
39,38:5
39,42:8
40,1:2
40,2:4
40,3:7
40,4:6
40,5:3
40,6:6
40,7:11
40,9:3
40,10:1
40,11:4
40,12:2
40,13:10
40,14:6
40,15:8
40,17:10
40,18:3
40,19:7
40,20:5
40,21:2
40,22:8
40,23:5
40,24:4
40,25:2
40,26:10
40,28:2
40,30:11
40,31:5
40,32:10
40,35:8
40,36:3
40,38:5
40,42:8
41,1:2
41,2:4
41,3:7
41,4:6
41,5:3
41,6:6
41,7:11
41,9:3
41,10:1
41,11:4
41,12:2
41,13:10
41,14:6
41,15:8
41,17:10
41,18:3
41,19:7
41,20:5
41,21:2
41,22:8
41,23:5
41,24:4
41,25:2
41,26:10
41,28:2
41,30:11
41,31:5
41,32:10
41,35:8
41,36:3
41,38:5
42,7:3
42,13:2
42,17:2
42,26:2
42,30:3
42,32:2
43,7:3
43,13:2
43,17:2
43,26:2
43,30:3
43,32:2
44,1:2
44,2:4
44,3:7
44,4:6
44,5:3
44,6:6
44,7:11
44,9:3
44,10:1
44,11:4
44,12:2
44,13:10
44,14:6
44,15:8
44,17:10
44,18:3
44,19:7
44,20:5
44,21:2
44,22:8
44,23:5
44,24:4
44,25:2
44,26:10
44,28:2
44,30:11
44,31:5
44,32:10
44,35:8
44,36:3
44,38:5
44,42:8
44,43:8
45,1:1
45,2:3
45,3:6
45,4:5
45,5:2
45,6:5
45,7:10
45,9:2
45,11:3
45,12:1
45,13:9
45,14:5
45,15:7
45,17:9
45,18:2
45,19:6
45,20:4
45,21:1
45,22:7
45,23:4
45,24:3
45,25:1
45,26:9
45,28:1
45,30:10
45,31:4
45,32:9
45,35:7
45,36:2
45,38:4
45,42:7
45,43:7
46,3:1
46,7:5
46,13:4
46,15:2
46,17:4
46,19:1
46,22:2
46,26:4
46,30:5
46,32:4
46,35:2
46,42:2
46,43:2
47,3:1
47,7:5
47,13:4
47,15:2
47,17:4
47,19:1
47,22:2
47,26:4
47,30:5
47,32:4
47,35:2
47,42:2
47,43:2
47,50:3
48,3:1
48,7:5
48,13:4
48,15:2
48,17:4
48,19:1
48,22:2
48,26:4
48,30:5
48,32:4
48,35:2
48,42:2
48,43:2
48,50:3
48,51:3
48,52:3
48,53:5
49,3:2
49,4:1
49,6:1
49,7:6
49,13:5
49,14:1
49,15:3
49,17:5
49,19:2
49,22:3
49,26:5
49,30:6
49,32:5
49,35:3
49,42:3
49,43:3
49,46:1
49,47:1
49,48:1
49,50:4
49,51:4
49,52:4
49,53:6
49,55:5
49,57:5
50,7:2
50,13:1
50,17:1
50,26:1
50,30:2
50,32:1
50,53:2
50,55:1
50,57:1
51,7:2
51,13:1
51,17:1
51,26:1
51,30:2
51,32:1
52,7:2
52,13:1
52,17:1
52,26:1
52,30:2
52,32:1
54,2:1
54,3:4
54,4:3
54,6:3
54,7:8
54,11:1
54,13:7
54,14:3
54,15:5
54,17:7
54,19:4
54,20:2
54,22:5
54,23:2
54,24:1
54,26:7
54,30:8
54,31:2
54,32:7
54,35:5
54,38:2
54,42:5
54,43:5
54,46:3
54,47:3
54,48:3
54,49:2
54,50:6
54,51:6
54,52:6
54,53:8
55,7:1
55,30:1
55,53:1
56,2:1
56,3:4
56,4:3
56,6:3
56,7:8
56,11:1
56,13:7
56,14:3
56,15:5
56,17:7
56,19:4
56,20:2
56,22:5
56,23:2
56,24:1
56,26:7
56,30:8
56,31:2
56,32:7
56,35:5
56,38:2
56,42:5
56,43:5
56,46:3
56,47:3
56,48:3
56,49:2
56,50:6
56,51:6
56,52:6
56,53:8
56,55:7
57,7:1
57,30:1
57,53:1
58,7:1
58,30:1
58,53:1

<end>

<optimal SALBP-1 value>
29


<rand seed>
467321153

